100
128
50
40
29
11
60
27
46
45
51
26
55
1
18
21
30
21
7
53
5
13
61
29
59
59
31
21
56
43
47
58
14
4
37
59
33
23
25
6
16
35
44
14
48
15
13
1
61
47
25
14
26
23
43
1
33
1
43
16
14
31
40
2
16
5
15
19
42
15
18
5
26
14
1
19
13
53
17
49
16
21
14
5
27
43
17
41
14
30
5
18
2
37
13
21
44
35
63
47
19
64